RT is False
Default write of storage_offers_DA.csv just to have a file (but constraint should be inactive)
Reading model...
...model read.
creating competitive generators file...
...competitive generators recorded.
Loading data...
.. day-ahead data read.
Compiling instance...
...instance created.
Creating Offer Mitigation (model will solve as dispatch if TRUE)...
NOTE: storage offers will not be mitigated
...storage offer mitigation file created
Converting model to MPEC...
...converted
NOTE: initial MIP solve with only storage competitive to get feasible solution
Solving...

Welcome to IBM(R) ILOG(R) CPLEX(R) Interactive Optimizer 12.9.0.0
  with Simplex, Mixed Integer & Barrier Optimizers
5725-A06 5725-A29 5724-Y48 5724-Y49 5724-Y54 5724-Y55 5655-Y21
Copyright IBM Corp. 1988, 2019.  All Rights Reserved.

Type 'help' for a list of available commands.
Type 'help' followed by a command name for more
information on commands.

CPLEX> Logfile 'cplex.log' closed.
Logfile 'C:\Users\Luke\Desktop\test919\logs\tmprr0bdi8a.cplex.log' open.
CPLEX> New value for parallel optimization mode: -1
CPLEX> New value for mixed integer optimality gap tolerance: 0.01
CPLEX> New value for integrality tolerance: 1e-09
CPLEX> New value for feasibility tolerance: 0.01
CPLEX> New value for deterministic time limit in ticks: 75000
CPLEX> Problem 'C:\Users\Luke\Desktop\test919\logs\tmpjaoga5f1.pyomo.lp' read.
Read time = 0.19 sec. (14.73 ticks)
CPLEX> Problem name         : C:\Users\Luke\Desktop\test919\logs\tmpjaoga5f1.pyomo.lp
Objective sense      : Maximize
Variables            :   53805  [Nneg: 1,  Box: 22000,  Free: 4464,
                                 Binary: 27340]
Objective nonzeros   :    9112
Linear constraints   :  123205  [Less: 41346,  Greater: 59096,  Equal: 22763]
  Nonzeros           :  291836
  RHS nonzeros       :   67574

Variables            : Min LB: -5000.000        Max UB: 1000000.       
Objective nonzeros   : Min   : 0.1000000        Max   : 2500.000       
Linear constraints   :
  Nonzeros           : Min   : 0.1000000        Max   : 1000000.       
  RHS nonzeros       : Min   : 0.1000000        Max   : 1000000.       
CPLEX> CPXPARAM_Parallel                                -1
CPXPARAM_Simplex_Tolerances_Feasibility          0.01
CPXPARAM_DetTimeLimit                            75000
CPXPARAM_MIP_Tolerances_MIPGap                   0.01
CPXPARAM_MIP_Tolerances_Integrality              1.0000000000000001e-09
Tried aggregator 3 times.
MIP Presolve eliminated 88261 rows and 18663 columns.
MIP Presolve added 3468 rows and 0 columns.
MIP Presolve modified 24925 coefficients.
Aggregator did 12994 substitutions.
Reduced MIP has 25418 rows, 21670 columns, and 72285 nonzeros.
Reduced MIP has 8573 binaries, 0 generals, 0 SOSs, and 0 indicators.
Presolve time = 0.23 sec. (174.39 ticks)
Probing fixed 411 vars, tightened 2906 bounds.
Probing time = 1.53 sec. (914.93 ticks)
Tried aggregator 2 times.
MIP Presolve eliminated 935 rows and 823 columns.
MIP Presolve modified 2296 coefficients.
Aggregator did 32 substitutions.
Reduced MIP has 24451 rows, 20815 columns, and 69491 nonzeros.
Reduced MIP has 8162 binaries, 0 generals, 0 SOSs, and 0 indicators.
Presolve time = 0.08 sec. (74.79 ticks)
Probing time = 0.03 sec. (16.40 ticks)
Clique table members: 6317.
MIP emphasis: balance optimality and feasibility.
MIP search method: dynamic search.
Parallel mode: opportunistic, using up to 24 threads.
Root relaxation solution time = 0.42 sec. (306.72 ticks)

        Nodes                                         Cuts/
   Node  Left     Objective  IInf  Best Integer    Best Bound    ItCnt     Gap

      0     0     4032.0414  1836                   4032.0414     7467         
      0     0     4032.0414   585                   Cuts: 892     7872         
      0     0     4031.6977   487                   Cuts: 553     8122         
      0     0     4031.5125   394                   Cuts: 280     8259         
      0     0     4031.5125   341                   Cuts: 138     8340         
      0     0     4031.5125   306                   Cuts: 101     8426         
      0     0     4031.5125   272                    Cuts: 96     8481         
      0     0     4031.5125   256                    Cuts: 71     8542         
      0     0     4031.5125   248                    Cuts: 63     8558         
      0     0     4031.5125   239                    Cuts: 44     8571         
      0     0     4031.5125   238                    Cuts: 26     8572         
      0    10     3784.7920    21                   3989.9924     8590         
Elapsed time = 10.69 sec. (7567.54 ticks, tree = 0.02 MB, solutions = 0)
    590   506     3956.4547     8                   3988.4314    12387         
    969   600     3938.2132     2                   3988.4314    13239         
   1122   890   -10975.1730     4                   3988.4314    19228         
   1283   935    infeasible                         3988.4314    20886         
   1412   961     3955.6850     4                   3988.4314    21552         
   1511   990   -10234.3131     2                   3988.4314    22174         
   1614  1014     2981.2850     6                   3988.4314    22469         
   1792  1105     3985.7316    19                   3988.4314    24500         
   1927  1202   -10255.6852     4                   3988.4314    25462         
*  2253  1205      integral     0   -10663.9961     3988.4314    26452  137.40%
   2505  1308     3985.1035     9   -10663.9961     3988.4314    28325  137.40%
Elapsed time = 16.11 sec. (10688.75 ticks, tree = 7.79 MB, solutions = 2)
   2942   955     3984.5943     4   -10663.9961     3988.4314    34192  137.40%
   3216  1064     3984.8936     1   -10663.9961     3988.4314    34647  137.40%
   3434  1093     3913.6308     2   -10663.9961     3988.4314    34787  137.40%
   3612  1134     2957.5957     3   -10663.9961     3988.4314    35006  137.40%
   3777  1155        cutoff         -10663.9961     3988.4314    35229  137.40%
   3925  1182     3984.5943     2   -10663.9961     3988.4314    35635  137.40%
   4068  1192        cutoff         -10663.9961     3988.4314    35741  137.40%
   4207  1194     3964.6805     2   -10663.9961     3988.4314    35802  137.40%
   4331  1194     3712.5497     2   -10663.9961     3988.4314    35797  137.40%
   4478  1199     3983.8246     2   -10663.9961     3988.4314    36082  137.40%
Elapsed time = 26.17 sec. (20261.19 ticks, tree = 5.41 MB, solutions = 2)
   4598  1214        cutoff         -10663.9961     3988.4314    36242  137.40%
   4715  1228        cutoff         -10663.9961     3988.4314    36443  137.40%
   4832  1225     3987.4519     1   -10663.9961     3988.4314    36322  137.40%
   4950  1242     3239.9900     4   -10663.9961     3988.4314    36606  137.40%
   5058  1270        cutoff         -10663.9961     3988.4314    36942  137.40%
   5172  1287        cutoff         -10663.9961     3988.4314    37085  137.40%
   5273  1355     3913.6308     3   -10663.9961     3988.4314    37522  137.40%
   5357  1369        cutoff         -10663.9961     3988.4314    37650  137.40%
   5432  1387        cutoff         -10663.9961     3988.4314    37804  137.40%
   5522  1411        cutoff         -10663.9961     3988.4314    38024  137.40%
Elapsed time = 35.13 sec. (29903.53 ticks, tree = 7.26 MB, solutions = 2)
   5609  1412        cutoff         -10663.9961     3988.4314    38033  137.40%
   5713  1416     3987.1526     2   -10663.9961     3988.4314    38057  137.40%
   5796  1435     3767.7497     2   -10663.9961     3988.4314    38272  137.40%
   5890  1464     3987.1526     2   -10663.9961     3988.4314    38566  137.40%
   5969  1471        cutoff         -10663.9961     3988.4314    38624  137.40%
   6039  1475        cutoff         -10663.9961     3988.4314    38655  137.40%
   6112  1520     3984.5943     1   -10663.9961     3988.4314    38939  137.40%
   6190  1521     3987.1526     2   -10663.9961     3988.4314    38958  137.40%
   6266  1536     3984.5943     2   -10663.9961     3988.4314    39082  137.40%
   6325  1548     3971.3890     2   -10663.9961     3988.4314    39176  137.40%
Elapsed time = 43.59 sec. (39551.32 ticks, tree = 8.14 MB, solutions = 2)
   6400  1544     3960.0193     2   -10663.9961     3988.4314    39125  137.40%
   6474  1564        cutoff         -10663.9961     3988.4314    39365  137.40%
   6550  1572     3928.6246     2   -10663.9961     3988.4314    39461  137.40%
   6619  1583     3984.5943     2   -10663.9961     3988.4314    39571  137.40%
   6682  1603     2957.5957     3   -10663.9961     3988.4314    39719  137.40%
   6747  1601        cutoff         -10663.9961     3988.4314    39713  137.40%
   6815  1605        cutoff         -10663.9961     3988.4314    39762  137.40%
   6873  1609        cutoff         -10663.9961     3988.4314    39831  137.40%
   6929  1610     3987.1526     1   -10663.9961     3988.4314    39810  137.40%
   6998  1618        cutoff         -10663.9961     3988.4314    39970  137.40%
Elapsed time = 52.09 sec. (49217.07 ticks, tree = 8.70 MB, solutions = 2)
   7060  1617        cutoff         -10663.9961     3988.4314    39916  137.40%
   7097  1621     3763.2227     3   -10663.9961     3988.4314    40013  137.40%
   7117  1618     3768.5193     2   -10663.9961     3988.4314    39930  137.40%
   7124  1621     2968.3402     2   -10663.9961     3988.4314    40039  137.40%
   7125  1637     3655.0269     3   -10663.9961     3988.4314    47185  137.40%
   8022   746    infeasible         -10663.9961     3988.4314    50464  137.40%
*  8541   523      integral     0     4003.4789     3988.4314    51469   -0.38%
   9256   553     4003.4789     9     4003.4789     3988.4314    51099   -0.38%

Clique cuts applied:  2
Implied bound cuts applied:  1
Flow cuts applied:  7
Mixed integer rounding cuts applied:  1
Gomory fractional cuts applied:  4

Root node processing (before b&c):
  Real time             =   10.30 sec. (7547.43 ticks)
Parallel b&c, 24 threads:
  Real time             =   56.25 sec. (53060.08 ticks)
  Sync time (average)   =    0.43 sec.
  Wait time (average)   =    0.06 sec.
                          ------------
Total (root+branch&cut) =   66.55 sec. (60607.50 ticks)

Solution pool: 6 solutions saved.

MIP - Integer optimal solution:  Objective =  4.0034788914e+03
Solution time =   66.55 sec.  Iterations = 53740  Nodes = 9422
Deterministic time = 60607.66 ticks  (910.75 ticks/sec)

CPLEX> Incumbent solution written to file 'C:\Users\Luke\Desktop\test919\logs\tmpudza1nvo.cplex.sol'.
CPLEX> NOTE: no warmstart specified for MIP iteration, default behavior is true
NOTE: resolving with all competitive generators using storage-only solution to warmstart
Solving...

Welcome to IBM(R) ILOG(R) CPLEX(R) Interactive Optimizer 12.9.0.0
  with Simplex, Mixed Integer & Barrier Optimizers
5725-A06 5725-A29 5724-Y48 5724-Y49 5724-Y54 5724-Y55 5655-Y21
Copyright IBM Corp. 1988, 2019.  All Rights Reserved.

Type 'help' for a list of available commands.
Type 'help' followed by a command name for more
information on commands.

CPLEX> Logfile 'cplex.log' closed.
Logfile 'C:\Users\Luke\Desktop\test919\logs\tmpmq9ubgg6.cplex.log' open.
CPLEX> New value for parallel optimization mode: -1
CPLEX> New value for mixed integer optimality gap tolerance: 0.01
CPLEX> New value for integrality tolerance: 1e-09
CPLEX> New value for feasibility tolerance: 0.01
CPLEX> New value for deterministic time limit in ticks: 75000
CPLEX> Problem 'C:\Users\Luke\Desktop\test919\logs\tmpbz3rwb3f.pyomo.lp' read.
Read time = 0.19 sec. (14.75 ticks)
CPLEX> MIP start file 'C:\Users\Luke\Desktop\test919\logs\tmpcjky72wg.cplex.mst' read.
CPLEX> Problem name         : C:\Users\Luke\Desktop\test919\logs\tmpbz3rwb3f.pyomo.lp
Objective sense      : Maximize
Variables            :   54525  [Nneg: 1,  Box: 22720,  Free: 4464,
                                 Binary: 27340]
Objective nonzeros   :    9832
Linear constraints   :  123205  [Less: 41346,  Greater: 59096,  Equal: 22763]
  Nonzeros           :  291836
  RHS nonzeros       :   67574

Variables            : Min LB: -5000.000        Max UB: 1000000.       
Objective nonzeros   : Min   : 0.1000000        Max   : 2500.000       
Linear constraints   :
  Nonzeros           : Min   : 0.1000000        Max   : 1000000.       
  RHS nonzeros       : Min   : 0.1000000        Max   : 1000000.       
CPLEX> CPXPARAM_Parallel                                -1
CPXPARAM_Simplex_Tolerances_Feasibility          0.01
CPXPARAM_DetTimeLimit                            75000
CPXPARAM_MIP_Tolerances_MIPGap                   0.01
CPXPARAM_MIP_Tolerances_Integrality              1.0000000000000001e-09
Warning:  No solution found from 1 MIP starts.
Retaining values of one MIP start for possible repair.
Tried aggregator 3 times.
MIP Presolve eliminated 88261 rows and 19383 columns.
MIP Presolve added 3468 rows and 0 columns.
MIP Presolve modified 24925 coefficients.
Aggregator did 12994 substitutions.
Reduced MIP has 25418 rows, 21670 columns, and 72285 nonzeros.
Reduced MIP has 8573 binaries, 0 generals, 0 SOSs, and 0 indicators.
Presolve time = 0.23 sec. (174.75 ticks)
Probing fixed 411 vars, tightened 2906 bounds.
Probing time = 1.53 sec. (914.93 ticks)
Tried aggregator 2 times.
MIP Presolve eliminated 935 rows and 823 columns.
MIP Presolve modified 2296 coefficients.
Aggregator did 32 substitutions.
Reduced MIP has 24451 rows, 20815 columns, and 69491 nonzeros.
Reduced MIP has 8162 binaries, 0 generals, 0 SOSs, and 0 indicators.
Presolve time = 0.09 sec. (74.79 ticks)
Probing time = 0.03 sec. (16.40 ticks)
Clique table members: 6317.
MIP emphasis: balance optimality and feasibility.
MIP search method: dynamic search.
Parallel mode: opportunistic, using up to 24 threads.
Root relaxation solution time = 0.41 sec. (306.72 ticks)

        Nodes                                         Cuts/
   Node  Left     Objective  IInf  Best Integer    Best Bound    ItCnt     Gap

      0     0     4032.0414  1836                   4032.0414     7467         
      0     0     4032.0414   585                   Cuts: 892     7872         
      0     0     4031.6977   487                   Cuts: 553     8122         
      0     0     4031.5125   394                   Cuts: 280     8259         
      0     0     4031.5125   341                   Cuts: 138     8340         
      0     0     4031.5125   306                   Cuts: 101     8426         
      0     0     4031.5125   272                    Cuts: 96     8481         
      0     0     4031.5125   256                    Cuts: 71     8542         
      0     0     4031.5125   248                    Cuts: 63     8558         
      0     0     4031.5125   239                    Cuts: 44     8571         
      0     0     4031.5125   238                    Cuts: 26     8572         
Repair heuristic found nothing.
      0     9     3784.7920    20                   3989.9924     8589         
Elapsed time = 11.03 sec. (7667.74 ticks, tree = 0.02 MB, solutions = 0)
    553   307     3956.4547     4                   3988.4314    11067         
    932   578    infeasible                         3988.4314    12928         
   1064   848   -10232.5172     6                   3988.4314    19777         
   1191   857    infeasible                         3988.4314    20231         
   1315   881   -10233.2869     4                   3988.4314    20528         
   1422   913    infeasible                         3988.4314    20951         
   1519   955     3717.6143     8                   3988.4314    21184         
   1607   934   -10232.5172     4                   3988.4314    21037         
   1693   946    infeasible                         3988.4314    21119         
   2217  1080   -10260.1629     7                   3988.4314    23623         
Elapsed time = 16.27 sec. (10791.34 ticks, tree = 6.66 MB, solutions = 0)
*  2532+  968                       -10560.4920     3988.4314           137.77%
   2926  1310     3725.7549     2     -119.6449     3988.4314    36139     --- 
   3189   805        cutoff           -119.6449     3988.4314    42251     --- 
   3407   816        cutoff           -119.6449     3988.4314    42661     --- 
   3588   898        cutoff           -119.6449     3988.4314    43502     --- 
   3743   890     3956.4354     2     -119.6449     3988.4314    43433     --- 
   3892   899        cutoff           -119.6449     3988.4314    43517     --- 
   4029   904        cutoff           -119.6449     3988.4314    43637     --- 
   4163   916        cutoff           -119.6449     3988.4314    43808     --- 
   4288   915        cutoff           -119.6449     3988.4314    43869     --- 
Elapsed time = 25.92 sec. (19886.75 ticks, tree = 5.10 MB, solutions = 3)
   4389   916     3984.1240     2     -119.6449     3988.4314    43869     --- 
   4503   936        cutoff           -119.6449     3988.4314    44224     --- 
   4628   962     3983.8246     4     -119.6449     3988.4314    44528     --- 
   4737   944        cutoff           -119.6449     3988.4314    44362     --- 
   4836   967        cutoff           -119.6449     3988.4314    44602     --- 
   4927   998        cutoff           -119.6449     3988.4314    44834     --- 
   5021   996     3977.6252     4     -119.6449     3988.4314    44819     --- 
   5102  1054        cutoff           -119.6449     3988.4314    45149     --- 
   5189  1060        cutoff           -119.6449     3988.4314    45200     --- 
   5270  1055     3772.6526     3     -119.6449     3988.4314    45146     --- 
Elapsed time = 35.11 sec. (29519.31 ticks, tree = 6.22 MB, solutions = 3)
   5360  1093     3984.1240     2     -119.6449     3988.4314    45508     --- 
   5455  1115     3976.8556     2     -119.6449     3988.4314    45667     --- 
   5537  1136     3983.8246     3     -119.6449     3988.4314    45808     --- 
   5632  1164        cutoff           -119.6449     3988.4314    46016     --- 
   5737  1177        cutoff           -119.6449     3988.4314    46271     --- 
   5830  1172     3722.4270     2     -119.6449     3988.4314    46092     --- 
   5917  1234        cutoff           -119.6449     3988.4314    46756     --- 
   6023  1268        cutoff           -119.6449     3988.4314    46876     --- 
   6110  1300     3976.0416     3     -119.6449     3988.4314    47033     --- 
   6209  1250     3977.6252     2     -119.6449     3988.4314    46809     --- 
Elapsed time = 43.91 sec. (39183.88 ticks, tree = 7.47 MB, solutions = 3)
   6277  1240     3983.8246     1     -119.6449     3988.4314    46751     --- 
   6354  1356     3763.2227     2     -119.6449     3988.4314    47294     --- 
   6414  1365        cutoff           -119.6449     3988.4314    47355     --- 
   6487  1367        cutoff           -119.6449     3988.4314    47402     --- 
   6559  1362     3763.2227     2     -119.6449     3988.4314    47331     --- 
   6628  1364        cutoff           -119.6449     3988.4314    47363     --- 
   6688  1368     3933.6892     2     -119.6449     3988.4314    47398     --- 
   6763  1395        cutoff           -119.6449     3988.4314    47576     --- 
   6827  1398        cutoff           -119.6449     3988.4314    47613     --- 
   6905  1401        cutoff           -119.6449     3988.4314    47686     --- 
Elapsed time = 52.86 sec. (48867.80 ticks, tree = 9.37 MB, solutions = 3)
   6966  1411     3984.1240     2     -119.6449     3988.4314    47787     --- 
   7029  1412        cutoff           -119.6449     3988.4314    47933     --- 
   7085  1412     3983.8246     1     -119.6449     3988.4314    47896     --- 
   7132  1417     3933.6892     2     -119.6449     3988.4314    47958     --- 
   7153  1413     3836.0634     2     -119.6449     3988.4314    47942     --- 
   7163  1419     3763.2227     2     -119.6449     3988.4314    47983     --- 
   7164  1452        cutoff           -119.6449     3988.4314    54863     --- 
   7803   391     2662.1818     5     -119.6449     3988.4314    56351     --- 
   8396   536        cutoff           -119.6449     3988.4314    56981     --- 
   8845   655     3781.4331     3     -119.6449     3988.4314    57618     --- 
Elapsed time = 68.81 sec. (62899.84 ticks, tree = 2.66 MB, solutions = 3)
   9159   674        cutoff           -119.6449     3988.4314    57775     --- 
*  9291   723      integral     0     2122.9413     3988.4314    58072   87.87%
   9534   745        cutoff           2122.9413     3988.4314    58193   87.87%
   9762   730        cutoff           2122.9413     3988.4314    58236   87.87%
   9967   758     4000.7623     2     2122.9413     3988.4314    58386   87.87%
  10164   699     4001.0616     5     3187.4452     3988.4314    58843   25.13%
  10393   725     3207.8404     1     3187.4452     3988.4314    58759   25.13%
  10670   716        cutoff           3207.6371     3988.4314    58767   24.34%
  10914   667        cutoff           3207.6371     3988.4314    59297   24.34%
  11120   735        cutoff           3207.6371     3988.4314    59604   24.34%
Elapsed time = 78.84 sec. (72015.26 ticks, tree = 3.19 MB, solutions = 6)
  11302   771        cutoff           3207.6371     3988.4314    59763   24.34%
  11468   814     4000.7623     2     3207.6371     3988.4314    59930   24.34%
  11584   819        cutoff           3207.6371     3988.4314    59986   24.34%

Cover cuts applied:  1
Implied bound cuts applied:  1
Flow cuts applied:  8
Mixed integer rounding cuts applied:  2
Gomory fractional cuts applied:  3

Root node processing (before b&c):
  Real time             =   10.64 sec. (7648.71 ticks)
Parallel b&c, 24 threads:
  Real time             =   70.23 sec. (67741.20 ticks)
  Sync time (average)   =    0.45 sec.
  Wait time (average)   =    0.07 sec.
                          ------------
Total (root+branch&cut) =   80.88 sec. (75389.91 ticks)

Solution pool: 6 solutions saved.

MIP - Deterministic time limit exceeded, integer feasible:  Objective =  3.2076371409e+03
Current MIP best bound =  3.9884314060e+03 (gap = 780.794, 24.34%)
Solution time =   80.89 sec.  Iterations = 60334  Nodes = 11603 (882)
Deterministic time = 75390.06 ticks  (932.00 ticks/sec)

CPLEX> Incumbent solution written to file 'C:\Users\Luke\Desktop\test919\logs\tmpncgulrjt.cplex.sol'.
CPLEX> Exporting results... 
